NAME : 10_3_3_1_(17).dat
COMMENT : Henke, Speranza, Wäscher, 2015
TYPE : MCVRP
DIMENSION : 11
EDGE_WEIGHT_TYPE : DISTANCE_MATRIX
CAPACITY : 1000
VEHICLES : 2
PRODUCT TYPES : 3
COMPARTMENTS : 3
NODE_COORD_SECTION
1 50 50
2 50.29 12.46
3 23.07 83.6
4 80.59 27.45
5 11.98 92.8
6 83.42 44.05
7 71.87 7.73
8 65.07 42.58
9 36.99 31.7
10 52.32 58.28
11 16.16 64.63
DEMAND_SECTION
1 0 0 0
2 51 0 0
3 0 0 107
4 0 0 89
5 183 0 0
6 126 0 0
7 23 0 0
8 0 0 75
9 48 0 0
10 0 407 0
11 248 0 0
DEPOT_SECTION
1
EOF